problem_generation/data/GISP/train/er_n=65_m=1256_p=0.60_SET2_setparam=100.00_alpha=0.50_452.lp
maximize
OBJ:100x0 + 100x1 + 100x2 + 100x3 + 100x4 + 100x5 + 100x6 + 100x7 + 100x8 + 100x9 + 100x10 + 100x11 + 100x12 + 100x13 + 100x14 + 100x15 + 100x16 + 100x17 + 100x18 + 100x19 + 100x20 + 100x21 + 100x22 + 100x23 + 100x24 + 100x25 + 100x26 + 100x27 + 100x28 + 100x29 + 100x30 + 100x31 + 100x32 + 100x33 + 100x34 + 100x35 + 100x36 + 100x37 + 100x38 + 100x39 + 100x40 + 100x41 + 100x42 + 100x43 + 100x44 + 100x45 + 100x46 + 100x47 + 100x48 + 100x49 + 100x50 + 100x51 + 100x52 + 100x53 + 100x54 + 100x55 + 100x56 + 100x57 + 100x58 + 100x59 + 100x60 + 100x61 + 100x62 + 100x63 + 100x64 - y26_30 - y18_26 - y36_62 - y15_39 - y28_58 - y7_35 - y29_32 - y18_44 - y8_9 - y0_5 - y29_41 - y8_18 - y48_63 - y21_46 - y11_23 - y10_45 - y3_6 - y3_15 - y14_15 - y22_28 - y2_59 - y14_24 - y22_46 - y3_42 - y15_16 - y7_12 - y36_48 - y47_48 - y55_61 - y7_21 - y47_57 - y7_30 - y5_60 - y17_62 - y28_62 - y9_58 - y29_36 - y48_49 - y40_45 - y21_41 - y29_54 - y2_27 - y25_29 - y25_38 - y10_49 - y3_10 - y51_59 - y14_19 - y43_55 - y3_28 - y43_64 - y3_37 - y16_56 - y36_52 - y28_48 - y59_63 - y9_44 - y5_55 - y5_64 - y48_53 - y29_49 - y21_45 - y10_17 - y2_13 - y54_60 - y2_31 - y25_33 - y2_40 - y32_41 - y3_14 - y13_46 - y14_23 - y32_59 - y24_55 - y14_32 - y28_34 - y36_47 - y9_30 - y28_52 - y17_61 - y5_59 - y58_62 - y9_57 - y6_33 - y40_44 - y6_51 - y10_21 - y2_17 - y20_53 - y10_30 - y13_32 - y3_9 - y14_18 - y16_37 - y43_54 - y1_48 - y13_50 - y24_50 - y32_63 - y35_59 - y17_20 - y5_27 - y36_42 - y17_38 - y47_51 - y9_52 - y21_26 - y27_60 - y6_37 - y21_35 - y6_46 - y20_48 - y31_48 - y10_25 - y12_44 - y31_57 - y12_53 - y23_53 - y2_30 - y23_62 - y13_27 - y4_58 - y1_34 - y13_36 - y32_49 - y16_41 - y1_52 - y24_54 - y35_54 - y1_61 - y13_63 - y9_11 - y35_63 - y17_24 - y46_60 - y9_20 - y58_61 - y50_57 - y27_64 - y8_60 - y19_60 - y42_62 - y0_56 - y10_11 - y2_7 - y20_43 - y31_43 - y23_39 - y20_52 - y31_61 - y54_63 - y23_57 - y13_22 - y32_35 - y32_44 - y43_44 - y1_38 - y24_49 - y35_49 - y16_45 - y35_58 - y5_17 - y38_51 - y9_24 - y6_9 - y27_50 - y42_48 - y27_59 - y30_55 - y8_64 - y39_51 - y23_34 - y31_47 - y39_60 - y20_56 - y4_39 - y31_56 - y23_52 - y1_24 - y53_62 - y4_57 - y32_39 - y37_63 - y5_12 - y46_50 - y38_46 - y26_53 - y9_28 - y26_62 - y19_32 - y8_41 - y27_54 - y0_37 - y8_50 - y19_50 - y30_50 - y31_33 - y39_46 - y20_51 - y31_51 - y12_56 - y1_28 - y13_30 - y24_30 - y45_62 - y9_14 - y57_63 - y15_57 - y26_57 - y38_59 - y18_53 - y7_62 - y8_27 - y18_62 - y50_51 - y11_32 - y8_45 - y30_45 - y0_41 - y19_54 - y12_15 - y20_28 - y60_64 - y39_41 - y41_60 - y12_33 - y23_33 - y23_42 - y4_38 - y1_14 - y13_16 - y56_57 - y26_34 - y38_45 - y46_58 - y8_13 - y18_57 - y27_35 - y30_31 - y27_44 - y19_40 - y30_40 - y8_49 - y11_45 - y41_46 - y30_58 - y0_54 - y11_54 - y23_28 - y52_64 - y4_24 - y44_60 - y22_41 - y34_43 - y1_18 - y22_50 - y34_52 - y14_46 - y37_57 - y15_20 - y3_64 - y14_64 - y15_38 - y15_47 - y26_47 - y15_56 - y11_13 - y19_26 - y48_62 - y0_22 - y0_40 - y11_40 - y11_49 - y33_46 - y44_46 - y44_55 - y4_28 - y33_64 - y44_64 - y1_4 - y25_60 - y22_36 - y34_38 - y3_32 - y37_43 - y14_59 - y7_20 - y7_29 - y18_47 - y0_8 - y19_21 - y48_57 - y11_17 - y8_30 - y19_30 - y40_62 - y63_64 - y11_35 - y41_54 - y25_37 - y10_48 - y33_50 - y25_46 - y22_31 - y2_62 - y3_36 - y37_38 - y45_51 - y3_54 - y15_28 - y55_64 - y7_24 - y36_60 - y15_37 - y26_37 - y29_39 - y8_16 - y29_48 - y19_25 - y6_55 - y21_62 - y10_34 - y33_36 - y41_49 - y44_45 - y41_58 - y52_58 - y44_54 - y2_48 - y3_13 - y33_63 - y25_59 - y34_37 - y22_44 - y3_40 - y22_53 - y15_23 - y7_19 - y15_32 - y17_51 - y28_51 - y7_28 - y36_64 - y17_60 - y0_7 - y48_56 - y6_50 - y21_57 - y10_20 - y10_38 - y10_47 - y3_8 - y14_17 - y22_30 - y43_62 - y24_58 - y14_44 - y15_18 - y7_14 - y36_50 - y47_50 - y17_46 - y47_59 - y17_55 - y5_62 - y28_64 - y29_47 - y40_47 - y29_56 - y2_20 - y54_58 - y10_33 - y33_35 - y2_29 - y25_31 - y10_42 - y51_52 - y3_30 - y24_62 - y17_32 - y7_9 - y36_54 - y9_37 - y47_54 - y28_50 - y47_63 - y58_60 - y40_42 - y21_47 - y6_58 - y39_55 - y10_28 - y20_60 - y31_60 - y10_37 - y2_33 - y25_35 - y32_34 - y2_42 - y3_7 - y3_16 - y43_61 - y24_57 - y16_53 - y17_18 - y17_27 - y47_49 - y9_32 - y6_8 - y6_17 - y9_50 - y6_26 - y9_59 - y21_24 - y21_33 - y2_10 - y20_46 - y31_55 - y12_51 - y31_64 - y24_34 - y3_11 - y32_47 - y13_52 - y16_48 - y28_31 - y5_38 - y3_56 - y28_49 - y42_51 - y21_28 - y27_62 - y6_39 - y8_58 - y39_63 - y23_46 - y20_59 - y54_61 - y4_51 - y23_64 - y13_29 - y4_60 - y43_51 - y16_34 - y1_45 - y16_52 - y9_13 - y5_24 - y46_62 - y9_22 - y28_35 - y6_25 - y50_59 - y8_53 - y30_53 - y20_36 - y23_32 - y31_45 - y12_41 - y23_41 - y2_18 - y54_56 - y13_15 - y20_63 - y31_63 - y1_22 - y4_55 - y32_37 - y32_46 - y16_29 - y16_38 - y35_51 - y16_47 - y38_44 - y9_17 - y49_53 - y9_26 - y26_60 - y38_62 - y27_34 - y6_11 - y6_20 - y19_39 - y30_48 - y42_50 - y50_63 - y61_63 - y11_53 - y2_4 - y4_23 - y20_49 - y1_17 - y53_55 - y1_26 - y13_28 - y24_28 - y45_60 - y56_60 - y1_35 - y1_44 - y46_52 - y9_12 - y57_61 - y9_21 - y38_57 - y5_32 - y7_51 - y27_29 - y7_60 - y18_60 - y27_38 - y30_34 - y27_56 - y11_39 - y30_52 - y0_57 - y12_22 - y20_35 - y4_18 - y31_44 - y1_3 - y23_49 - y34_46 - y45_46 - y1_21 - y22_62 - y3_58 - y37_60 - y15_41 - y38_43 - y9_16 - y15_59 - y18_55 - y19_20 - y7_64 - y8_29 - y18_64 - y27_42 - y11_25 - y19_38 - y27_51 - y11_43 - y8_56 - y20_21 - y12_17 - y20_30 - y52_62 - y12_35 - y1_7 - y4_40 - y34_50 - y1_25 - y16_23 - y45_59 - y3_53 - y15_27 - y15_36 - y26_36 - y5_13 - y38_47 - y15_54 - y38_56 - y8_15 - y15_63 - y18_59 - y8_33 - y19_33 - y8_42 - y19_42 - y0_38 - y30_51 - y0_47 - y4_8 - y33_62 - y44_62 - y1_11 - y22_43 - y34_45 - y3_39 - y37_41 - y45_54 - y14_48 - y14_57 - y26_31 - y26_40 - y15_49 - y26_49 - y15_58 - y26_58 - y7_54 - y8_19 - y48_55 - y8_28 - y0_33 - y33_39 - y12_16 - y44_48 - y52_61 - y2_51 - y25_53 - y1_6 - y3_34 - y14_34 - y37_45 - y22_56 - y45_58 - y15_17 - y7_22 - y59_60 - y7_31 - y18_31 - y26_44 - y0_1 - y7_49 - y40_46 - y8_23 - y48_59 - y29_55 - y40_55 - y6_62 - y41_47 - y25_30 - y33_43 - y25_39 - y2_46 - y10_59 - y14_29 - y37_49 - y14_56
 Subject to
C1: x0+x1-y0_1 <=1 
C2: x0+x4 <=1 
C3: x0+x5-y0_5 <=1 
C4: x0+x7-y0_7 <=1 
C5: x0+x8-y0_8 <=1 
C6: x0+x13 <=1 
C7: x0+x15 <=1 
C8: x0+x16 <=1 
C9: x0+x17 <=1 
C10: x0+x18 <=1 
C11: x0+x19 <=1 
C12: x0+x20 <=1 
C13: x0+x22-y0_22 <=1 
C14: x0+x28 <=1 
C15: x0+x33-y0_33 <=1 
C16: x0+x34 <=1 
C17: x0+x35 <=1 
C18: x0+x36 <=1 
C19: x0+x37-y0_37 <=1 
C20: x0+x38-y0_38 <=1 
C21: x0+x40-y0_40 <=1 
C22: x0+x41-y0_41 <=1 
C23: x0+x42 <=1 
C24: x0+x44 <=1 
C25: x0+x47-y0_47 <=1 
C26: x0+x48 <=1 
C27: x0+x51 <=1 
C28: x0+x52 <=1 
C29: x0+x54-y0_54 <=1 
C30: x0+x55 <=1 
C31: x0+x56-y0_56 <=1 
C32: x0+x57-y0_57 <=1 
C33: x0+x59 <=1 
C34: x0+x61 <=1 
C35: x0+x64 <=1 
C36: x1+x3-y1_3 <=1 
C37: x1+x4-y1_4 <=1 
C38: x1+x5 <=1 
C39: x1+x6-y1_6 <=1 
C40: x1+x7-y1_7 <=1 
C41: x1+x10 <=1 
C42: x1+x11-y1_11 <=1 
C43: x1+x14-y1_14 <=1 
C44: x1+x15 <=1 
C45: x1+x17-y1_17 <=1 
C46: x1+x18-y1_18 <=1 
C47: x1+x20 <=1 
C48: x1+x21-y1_21 <=1 
C49: x1+x22-y1_22 <=1 
C50: x1+x24-y1_24 <=1 
C51: x1+x25-y1_25 <=1 
C52: x1+x26-y1_26 <=1 
C53: x1+x27 <=1 
C54: x1+x28-y1_28 <=1 
C55: x1+x29 <=1 
C56: x1+x30 <=1 
C57: x1+x31 <=1 
C58: x1+x32 <=1 
C59: x1+x33 <=1 
C60: x1+x34-y1_34 <=1 
C61: x1+x35-y1_35 <=1 
C62: x1+x38-y1_38 <=1 
C63: x1+x39 <=1 
C64: x1+x41 <=1 
C65: x1+x42 <=1 
C66: x1+x43 <=1 
C67: x1+x44-y1_44 <=1 
C68: x1+x45-y1_45 <=1 
C69: x1+x46 <=1 
C70: x1+x48-y1_48 <=1 
C71: x1+x52-y1_52 <=1 
C72: x1+x53 <=1 
C73: x1+x56 <=1 
C74: x1+x57 <=1 
C75: x1+x58 <=1 
C76: x1+x61-y1_61 <=1 
C77: x1+x64 <=1 
C78: x2+x4-y2_4 <=1 
C79: x2+x5 <=1 
C80: x2+x7-y2_7 <=1 
C81: x2+x10-y2_10 <=1 
C82: x2+x11 <=1 
C83: x2+x13-y2_13 <=1 
C84: x2+x14 <=1 
C85: x2+x15 <=1 
C86: x2+x16 <=1 
C87: x2+x17-y2_17 <=1 
C88: x2+x18-y2_18 <=1 
C89: x2+x19 <=1 
C90: x2+x20-y2_20 <=1 
C91: x2+x22 <=1 
C92: x2+x23 <=1 
C93: x2+x24 <=1 
C94: x2+x26 <=1 
C95: x2+x27-y2_27 <=1 
C96: x2+x29-y2_29 <=1 
C97: x2+x30-y2_30 <=1 
C98: x2+x31-y2_31 <=1 
C99: x2+x33-y2_33 <=1 
C100: x2+x34 <=1 
C101: x2+x40-y2_40 <=1 
C102: x2+x42-y2_42 <=1 
C103: x2+x45 <=1 
C104: x2+x46-y2_46 <=1 
C105: x2+x47 <=1 
C106: x2+x48-y2_48 <=1 
C107: x2+x49 <=1 
C108: x2+x51-y2_51 <=1 
C109: x2+x52 <=1 
C110: x2+x53 <=1 
C111: x2+x55 <=1 
C112: x2+x57 <=1 
C113: x2+x59-y2_59 <=1 
C114: x2+x62-y2_62 <=1 
C115: x3+x4 <=1 
C116: x3+x5 <=1 
C117: x3+x6-y3_6 <=1 
C118: x3+x7-y3_7 <=1 
C119: x3+x8-y3_8 <=1 
C120: x3+x9-y3_9 <=1 
C121: x3+x10-y3_10 <=1 
C122: x3+x11-y3_11 <=1 
C123: x3+x13-y3_13 <=1 
C124: x3+x14-y3_14 <=1 
C125: x3+x15-y3_15 <=1 
C126: x3+x16-y3_16 <=1 
C127: x3+x17 <=1 
C128: x3+x18 <=1 
C129: x3+x19 <=1 
C130: x3+x23 <=1 
C131: x3+x25 <=1 
C132: x3+x26 <=1 
C133: x3+x28-y3_28 <=1 
C134: x3+x30-y3_30 <=1 
C135: x3+x32-y3_32 <=1 
C136: x3+x34-y3_34 <=1 
C137: x3+x36-y3_36 <=1 
C138: x3+x37-y3_37 <=1 
C139: x3+x38 <=1 
C140: x3+x39-y3_39 <=1 
C141: x3+x40-y3_40 <=1 
C142: x3+x41 <=1 
C143: x3+x42-y3_42 <=1 
C144: x3+x43 <=1 
C145: x3+x44 <=1 
C146: x3+x45 <=1 
C147: x3+x46 <=1 
C148: x3+x47 <=1 
C149: x3+x48 <=1 
C150: x3+x49 <=1 
C151: x3+x53-y3_53 <=1 
C152: x3+x54-y3_54 <=1 
C153: x3+x56-y3_56 <=1 
C154: x3+x58-y3_58 <=1 
C155: x3+x60 <=1 
C156: x3+x61 <=1 
C157: x3+x62 <=1 
C158: x3+x64-y3_64 <=1 
C159: x4+x8-y4_8 <=1 
C160: x4+x9 <=1 
C161: x4+x10 <=1 
C162: x4+x11 <=1 
C163: x4+x14 <=1 
C164: x4+x15 <=1 
C165: x4+x17 <=1 
C166: x4+x18-y4_18 <=1 
C167: x4+x20 <=1 
C168: x4+x23-y4_23 <=1 
C169: x4+x24-y4_24 <=1 
C170: x4+x28-y4_28 <=1 
C171: x4+x29 <=1 
C172: x4+x31 <=1 
C173: x4+x32 <=1 
C174: x4+x36 <=1 
C175: x4+x37 <=1 
C176: x4+x38-y4_38 <=1 
C177: x4+x39-y4_39 <=1 
C178: x4+x40-y4_40 <=1 
C179: x4+x43 <=1 
C180: x4+x44 <=1 
C181: x4+x46 <=1 
C182: x4+x48 <=1 
C183: x4+x49 <=1 
C184: x4+x50 <=1 
C185: x4+x51-y4_51 <=1 
C186: x4+x53 <=1 
C187: x4+x55-y4_55 <=1 
C188: x4+x57-y4_57 <=1 
C189: x4+x58-y4_58 <=1 
C190: x4+x60-y4_60 <=1 
C191: x4+x61 <=1 
C192: x4+x62 <=1 
C193: x4+x63 <=1 
C194: x5+x6 <=1 
C195: x5+x7 <=1 
C196: x5+x8 <=1 
C197: x5+x10 <=1 
C198: x5+x12-y5_12 <=1 
C199: x5+x13-y5_13 <=1 
C200: x5+x14 <=1 
C201: x5+x15 <=1 
C202: x5+x16 <=1 
C203: x5+x17-y5_17 <=1 
C204: x5+x18 <=1 
C205: x5+x19 <=1 
C206: x5+x20 <=1 
C207: x5+x22 <=1 
C208: x5+x23 <=1 
C209: x5+x24-y5_24 <=1 
C210: x5+x25 <=1 
C211: x5+x27-y5_27 <=1 
C212: x5+x29 <=1 
C213: x5+x32-y5_32 <=1 
C214: x5+x34 <=1 
C215: x5+x35 <=1 
C216: x5+x38-y5_38 <=1 
C217: x5+x41 <=1 
C218: x5+x42 <=1 
C219: x5+x44 <=1 
C220: x5+x45 <=1 
C221: x5+x47 <=1 
C222: x5+x49 <=1 
C223: x5+x51 <=1 
C224: x5+x52 <=1 
C225: x5+x53 <=1 
C226: x5+x55-y5_55 <=1 
C227: x5+x57 <=1 
C228: x5+x58 <=1 
C229: x5+x59-y5_59 <=1 
C230: x5+x60-y5_60 <=1 
C231: x5+x61 <=1 
C232: x5+x62-y5_62 <=1 
C233: x5+x63 <=1 
C234: x5+x64-y5_64 <=1 
C235: x6+x7 <=1 
C236: x6+x8-y6_8 <=1 
C237: x6+x9-y6_9 <=1 
C238: x6+x10 <=1 
C239: x6+x11-y6_11 <=1 
C240: x6+x15 <=1 
C241: x6+x17-y6_17 <=1 
C242: x6+x18 <=1 
C243: x6+x19 <=1 
C244: x6+x20-y6_20 <=1 
C245: x6+x21 <=1 
C246: x6+x23 <=1 
C247: x6+x25-y6_25 <=1 
C248: x6+x26-y6_26 <=1 
C249: x6+x32 <=1 
C250: x6+x33-y6_33 <=1 
C251: x6+x35 <=1 
C252: x6+x36 <=1 
C253: x6+x37-y6_37 <=1 
C254: x6+x39-y6_39 <=1 
C255: x6+x40 <=1 
C256: x6+x45 <=1 
C257: x6+x46-y6_46 <=1 
C258: x6+x48 <=1 
C259: x6+x49 <=1 
C260: x6+x50-y6_50 <=1 
C261: x6+x51-y6_51 <=1 
C262: x6+x53 <=1 
C263: x6+x55-y6_55 <=1 
C264: x6+x57 <=1 
C265: x6+x58-y6_58 <=1 
C266: x6+x62-y6_62 <=1 
C267: x6+x63 <=1 
C268: x7+x9-y7_9 <=1 
C269: x7+x11 <=1 
C270: x7+x12-y7_12 <=1 
C271: x7+x14-y7_14 <=1 
C272: x7+x15 <=1 
C273: x7+x17 <=1 
C274: x7+x18 <=1 
C275: x7+x19-y7_19 <=1 
C276: x7+x20-y7_20 <=1 
C277: x7+x21-y7_21 <=1 
C278: x7+x22-y7_22 <=1 
C279: x7+x24-y7_24 <=1 
C280: x7+x25 <=1 
C281: x7+x26 <=1 
C282: x7+x28-y7_28 <=1 
C283: x7+x29-y7_29 <=1 
C284: x7+x30-y7_30 <=1 
C285: x7+x31-y7_31 <=1 
C286: x7+x33 <=1 
C287: x7+x34 <=1 
C288: x7+x35-y7_35 <=1 
C289: x7+x38 <=1 
C290: x7+x41 <=1 
C291: x7+x43 <=1 
C292: x7+x44 <=1 
C293: x7+x45 <=1 
C294: x7+x49-y7_49 <=1 
C295: x7+x51-y7_51 <=1 
C296: x7+x52 <=1 
C297: x7+x54-y7_54 <=1 
C298: x7+x56 <=1 
C299: x7+x60-y7_60 <=1 
C300: x7+x61 <=1 
C301: x7+x62-y7_62 <=1 
C302: x7+x64-y7_64 <=1 
C303: x8+x9-y8_9 <=1 
C304: x8+x12 <=1 
C305: x8+x13-y8_13 <=1 
C306: x8+x15-y8_15 <=1 
C307: x8+x16-y8_16 <=1 
C308: x8+x17 <=1 
C309: x8+x18-y8_18 <=1 
C310: x8+x19-y8_19 <=1 
C311: x8+x22 <=1 
C312: x8+x23-y8_23 <=1 
C313: x8+x24 <=1 
C314: x8+x25 <=1 
C315: x8+x26 <=1 
C316: x8+x27-y8_27 <=1 
C317: x8+x28-y8_28 <=1 
C318: x8+x29-y8_29 <=1 
C319: x8+x30-y8_30 <=1 
C320: x8+x32 <=1 
C321: x8+x33-y8_33 <=1 
C322: x8+x34 <=1 
C323: x8+x35 <=1 
C324: x8+x37 <=1 
C325: x8+x41-y8_41 <=1 
C326: x8+x42-y8_42 <=1 
C327: x8+x44 <=1 
C328: x8+x45-y8_45 <=1 
C329: x8+x47 <=1 
C330: x8+x48 <=1 
C331: x8+x49-y8_49 <=1 
C332: x8+x50-y8_50 <=1 
C333: x8+x51 <=1 
C334: x8+x53-y8_53 <=1 
C335: x8+x56-y8_56 <=1 
C336: x8+x58-y8_58 <=1 
C337: x8+x60-y8_60 <=1 
C338: x8+x64-y8_64 <=1 
C339: x9+x10 <=1 
C340: x9+x11-y9_11 <=1 
C341: x9+x12-y9_12 <=1 
C342: x9+x13-y9_13 <=1 
C343: x9+x14-y9_14 <=1 
C344: x9+x16-y9_16 <=1 
C345: x9+x17-y9_17 <=1 
C346: x9+x18 <=1 
C347: x9+x19 <=1 
C348: x9+x20-y9_20 <=1 
C349: x9+x21-y9_21 <=1 
C350: x9+x22-y9_22 <=1 
C351: x9+x23 <=1 
C352: x9+x24-y9_24 <=1 
C353: x9+x26-y9_26 <=1 
C354: x9+x27 <=1 
C355: x9+x28-y9_28 <=1 
C356: x9+x29 <=1 
C357: x9+x30-y9_30 <=1 
C358: x9+x31 <=1 
C359: x9+x32-y9_32 <=1 
C360: x9+x33 <=1 
C361: x9+x35 <=1 
C362: x9+x36 <=1 
C363: x9+x37-y9_37 <=1 
C364: x9+x40 <=1 
C365: x9+x41 <=1 
C366: x9+x43 <=1 
C367: x9+x44-y9_44 <=1 
C368: x9+x45 <=1 
C369: x9+x47 <=1 
C370: x9+x48 <=1 
C371: x9+x50-y9_50 <=1 
C372: x9+x51 <=1 
C373: x9+x52-y9_52 <=1 
C374: x9+x54 <=1 
C375: x9+x55 <=1 
C376: x9+x57-y9_57 <=1 
C377: x9+x58-y9_58 <=1 
C378: x9+x59-y9_59 <=1 
C379: x9+x60 <=1 
C380: x9+x61 <=1 
C381: x9+x64 <=1 
C382: x10+x11-y10_11 <=1 
C383: x10+x12 <=1 
C384: x10+x14 <=1 
C385: x10+x17-y10_17 <=1 
C386: x10+x19 <=1 
C387: x10+x20-y10_20 <=1 
C388: x10+x21-y10_21 <=1 
C389: x10+x24 <=1 
C390: x10+x25-y10_25 <=1 
C391: x10+x28-y10_28 <=1 
C392: x10+x30-y10_30 <=1 
C393: x10+x31 <=1 
C394: x10+x32 <=1 
C395: x10+x33-y10_33 <=1 
C396: x10+x34-y10_34 <=1 
C397: x10+x35 <=1 
C398: x10+x37-y10_37 <=1 
C399: x10+x38-y10_38 <=1 
C400: x10+x39 <=1 
C401: x10+x40 <=1 
C402: x10+x41 <=1 
C403: x10+x42-y10_42 <=1 
C404: x10+x45-y10_45 <=1 
C405: x10+x47-y10_47 <=1 
C406: x10+x48-y10_48 <=1 
C407: x10+x49-y10_49 <=1 
C408: x10+x53 <=1 
C409: x10+x54 <=1 
C410: x10+x55 <=1 
C411: x10+x59-y10_59 <=1 
C412: x10+x60 <=1 
C413: x11+x13-y11_13 <=1 
C414: x11+x14 <=1 
C415: x11+x15 <=1 
C416: x11+x17-y11_17 <=1 
C417: x11+x19 <=1 
C418: x11+x23-y11_23 <=1 
C419: x11+x25-y11_25 <=1 
C420: x11+x26 <=1 
C421: x11+x29 <=1 
C422: x11+x32-y11_32 <=1 
C423: x11+x34 <=1 
C424: x11+x35-y11_35 <=1 
C425: x11+x39-y11_39 <=1 
C426: x11+x40-y11_40 <=1 
C427: x11+x42 <=1 
C428: x11+x43-y11_43 <=1 
C429: x11+x44 <=1 
C430: x11+x45-y11_45 <=1 
C431: x11+x46 <=1 
C432: x11+x47 <=1 
C433: x11+x48 <=1 
C434: x11+x49-y11_49 <=1 
C435: x11+x50 <=1 
C436: x11+x53-y11_53 <=1 
C437: x11+x54-y11_54 <=1 
C438: x11+x57 <=1 
C439: x11+x58 <=1 
C440: x11+x60 <=1 
C441: x11+x61 <=1 
C442: x11+x62 <=1 
C443: x12+x14 <=1 
C444: x12+x15-y12_15 <=1 
C445: x12+x16-y12_16 <=1 
C446: x12+x17-y12_17 <=1 
C447: x12+x21 <=1 
C448: x12+x22-y12_22 <=1 
C449: x12+x24 <=1 
C450: x12+x32 <=1 
C451: x12+x33-y12_33 <=1 
C452: x12+x34 <=1 
C453: x12+x35-y12_35 <=1 
C454: x12+x41-y12_41 <=1 
C455: x12+x44-y12_44 <=1 
C456: x12+x45 <=1 
C457: x12+x46 <=1 
C458: x12+x47 <=1 
C459: x12+x50 <=1 
C460: x12+x51-y12_51 <=1 
C461: x12+x52 <=1 
C462: x12+x53-y12_53 <=1 
C463: x12+x54 <=1 
C464: x12+x56-y12_56 <=1 
C465: x12+x57 <=1 
C466: x12+x59 <=1 
C467: x12+x62 <=1 
C468: x13+x14 <=1 
C469: x13+x15-y13_15 <=1 
C470: x13+x16-y13_16 <=1 
C471: x13+x18 <=1 
C472: x13+x20 <=1 
C473: x13+x21 <=1 
C474: x13+x22-y13_22 <=1 
C475: x13+x23 <=1 
C476: x13+x27-y13_27 <=1 
C477: x13+x28-y13_28 <=1 
C478: x13+x29-y13_29 <=1 
C479: x13+x30-y13_30 <=1 
C480: x13+x32-y13_32 <=1 
C481: x13+x35 <=1 
C482: x13+x36-y13_36 <=1 
C483: x13+x41 <=1 
C484: x13+x42 <=1 
C485: x13+x45 <=1 
C486: x13+x46-y13_46 <=1 
C487: x13+x47 <=1 
C488: x13+x48 <=1 
C489: x13+x49 <=1 
C490: x13+x50-y13_50 <=1 
C491: x13+x51 <=1 
C492: x13+x52-y13_52 <=1 
C493: x13+x54 <=1 
C494: x13+x56 <=1 
C495: x13+x57 <=1 
C496: x13+x59 <=1 
C497: x13+x60 <=1 
C498: x13+x63-y13_63 <=1 
C499: x13+x64 <=1 
C500: x14+x15-y14_15 <=1 
C501: x14+x16 <=1 
C502: x14+x17-y14_17 <=1 
C503: x14+x18-y14_18 <=1 
C504: x14+x19-y14_19 <=1 
C505: x14+x23-y14_23 <=1 
C506: x14+x24-y14_24 <=1 
C507: x14+x25 <=1 
C508: x14+x28 <=1 
C509: x14+x29-y14_29 <=1 
C510: x14+x31 <=1 
C511: x14+x32-y14_32 <=1 
C512: x14+x34-y14_34 <=1 
C513: x14+x35 <=1 
C514: x14+x37 <=1 
C515: x14+x38 <=1 
C516: x14+x39 <=1 
C517: x14+x41 <=1 
C518: x14+x42 <=1 
C519: x14+x44-y14_44 <=1 
C520: x14+x46-y14_46 <=1 
C521: x14+x47 <=1 
C522: x14+x48-y14_48 <=1 
C523: x14+x50 <=1 
C524: x14+x51 <=1 
C525: x14+x54 <=1 
C526: x14+x56-y14_56 <=1 
C527: x14+x57-y14_57 <=1 
C528: x14+x59-y14_59 <=1 
C529: x14+x62 <=1 
C530: x14+x64-y14_64 <=1 
C531: x15+x16-y15_16 <=1 
C532: x15+x17-y15_17 <=1 
C533: x15+x18-y15_18 <=1 
C534: x15+x19 <=1 
C535: x15+x20-y15_20 <=1 
C536: x15+x23-y15_23 <=1 
C537: x15+x26 <=1 
C538: x15+x27-y15_27 <=1 
C539: x15+x28-y15_28 <=1 
C540: x15+x31 <=1 
C541: x15+x32-y15_32 <=1 
C542: x15+x36-y15_36 <=1 
C543: x15+x37-y15_37 <=1 
C544: x15+x38-y15_38 <=1 
C545: x15+x39-y15_39 <=1 
C546: x15+x41-y15_41 <=1 
C547: x15+x43 <=1 
C548: x15+x45 <=1 
C549: x15+x46 <=1 
C550: x15+x47-y15_47 <=1 
C551: x15+x49-y15_49 <=1 
C552: x15+x50 <=1 
C553: x15+x51 <=1 
C554: x15+x54-y15_54 <=1 
C555: x15+x55 <=1 
C556: x15+x56-y15_56 <=1 
C557: x15+x57-y15_57 <=1 
C558: x15+x58-y15_58 <=1 
C559: x15+x59-y15_59 <=1 
C560: x15+x61 <=1 
C561: x15+x62 <=1 
C562: x15+x63-y15_63 <=1 
C563: x16+x17 <=1 
C564: x16+x18 <=1 
C565: x16+x23-y16_23 <=1 
C566: x16+x24 <=1 
C567: x16+x25 <=1 
C568: x16+x26 <=1 
C569: x16+x29-y16_29 <=1 
C570: x16+x33 <=1 
C571: x16+x34-y16_34 <=1 
C572: x16+x35 <=1 
C573: x16+x37-y16_37 <=1 
C574: x16+x38-y16_38 <=1 
C575: x16+x41-y16_41 <=1 
C576: x16+x43 <=1 
C577: x16+x45-y16_45 <=1 
C578: x16+x47-y16_47 <=1 
C579: x16+x48-y16_48 <=1 
C580: x16+x49 <=1 
C581: x16+x51 <=1 
C582: x16+x52-y16_52 <=1 
C583: x16+x53-y16_53 <=1 
C584: x16+x54 <=1 
C585: x16+x55 <=1 
C586: x16+x56-y16_56 <=1 
C587: x16+x59 <=1 
C588: x16+x62 <=1 
C589: x17+x18-y17_18 <=1 
C590: x17+x20-y17_20 <=1 
C591: x17+x22 <=1 
C592: x17+x24-y17_24 <=1 
C593: x17+x26 <=1 
C594: x17+x27-y17_27 <=1 
C595: x17+x32-y17_32 <=1 
C596: x17+x38-y17_38 <=1 
C597: x17+x40 <=1 
C598: x17+x44 <=1 
C599: x17+x46-y17_46 <=1 
C600: x17+x49 <=1 
C601: x17+x50 <=1 
C602: x17+x51-y17_51 <=1 
C603: x17+x53 <=1 
C604: x17+x55-y17_55 <=1 
C605: x17+x58 <=1 
C606: x17+x59 <=1 
C607: x17+x60-y17_60 <=1 
C608: x17+x61-y17_61 <=1 
C609: x17+x62-y17_62 <=1 
C610: x18+x21 <=1 
C611: x18+x26-y18_26 <=1 
C612: x18+x30 <=1 
C613: x18+x31-y18_31 <=1 
C614: x18+x36 <=1 
C615: x18+x38 <=1 
C616: x18+x41 <=1 
C617: x18+x43 <=1 
C618: x18+x44-y18_44 <=1 
C619: x18+x46 <=1 
C620: x18+x47-y18_47 <=1 
C621: x18+x51 <=1 
C622: x18+x53-y18_53 <=1 
C623: x18+x55-y18_55 <=1 
C624: x18+x57-y18_57 <=1 
C625: x18+x59-y18_59 <=1 
C626: x18+x60-y18_60 <=1 
C627: x18+x61 <=1 
C628: x18+x62-y18_62 <=1 
C629: x18+x64-y18_64 <=1 
C630: x19+x20-y19_20 <=1 
C631: x19+x21-y19_21 <=1 
C632: x19+x22 <=1 
C633: x19+x23 <=1 
C634: x19+x25-y19_25 <=1 
C635: x19+x26-y19_26 <=1 
C636: x19+x30-y19_30 <=1 
C637: x19+x32-y19_32 <=1 
C638: x19+x33-y19_33 <=1 
C639: x19+x34 <=1 
C640: x19+x35 <=1 
C641: x19+x38-y19_38 <=1 
C642: x19+x39-y19_39 <=1 
C643: x19+x40-y19_40 <=1 
C644: x19+x41 <=1 
C645: x19+x42-y19_42 <=1 
C646: x19+x45 <=1 
C647: x19+x50-y19_50 <=1 
C648: x19+x52 <=1 
C649: x19+x54-y19_54 <=1 
C650: x19+x55 <=1 
C651: x19+x56 <=1 
C652: x19+x59 <=1 
C653: x19+x60-y19_60 <=1 
C654: x19+x62 <=1 
C655: x20+x21-y20_21 <=1 
C656: x20+x22 <=1 
C657: x20+x23 <=1 
C658: x20+x28-y20_28 <=1 
C659: x20+x29 <=1 
C660: x20+x30-y20_30 <=1 
C661: x20+x31 <=1 
C662: x20+x33 <=1 
C663: x20+x34 <=1 
C664: x20+x35-y20_35 <=1 
C665: x20+x36-y20_36 <=1 
C666: x20+x38 <=1 
C667: x20+x41 <=1 
C668: x20+x43-y20_43 <=1 
C669: x20+x44 <=1 
C670: x20+x46-y20_46 <=1 
C671: x20+x47 <=1 
C672: x20+x48-y20_48 <=1 
C673: x20+x49-y20_49 <=1 
C674: x20+x50 <=1 
C675: x20+x51-y20_51 <=1 
C676: x20+x52-y20_52 <=1 
C677: x20+x53-y20_53 <=1 
C678: x20+x54 <=1 
C679: x20+x55 <=1 
C680: x20+x56-y20_56 <=1 
C681: x20+x59-y20_59 <=1 
C682: x20+x60-y20_60 <=1 
C683: x20+x62 <=1 
C684: x20+x63-y20_63 <=1 
C685: x21+x22 <=1 
C686: x21+x24-y21_24 <=1 
C687: x21+x26-y21_26 <=1 
C688: x21+x28-y21_28 <=1 
C689: x21+x29 <=1 
C690: x21+x33-y21_33 <=1 
C691: x21+x35-y21_35 <=1 
C692: x21+x36 <=1 
C693: x21+x37 <=1 
C694: x21+x38 <=1 
C695: x21+x39 <=1 
C696: x21+x41-y21_41 <=1 
C697: x21+x42 <=1 
C698: x21+x43 <=1 
C699: x21+x44 <=1 
C700: x21+x45-y21_45 <=1 
C701: x21+x46-y21_46 <=1 
C702: x21+x47-y21_47 <=1 
C703: x21+x48 <=1 
C704: x21+x50 <=1 
C705: x21+x52 <=1 
C706: x21+x56 <=1 
C707: x21+x57-y21_57 <=1 
C708: x21+x58 <=1 
C709: x21+x60 <=1 
C710: x21+x61 <=1 
C711: x21+x62-y21_62 <=1 
C712: x21+x63 <=1 
C713: x22+x23 <=1 
C714: x22+x24 <=1 
C715: x22+x27 <=1 
C716: x22+x28-y22_28 <=1 
C717: x22+x30-y22_30 <=1 
C718: x22+x31-y22_31 <=1 
C719: x22+x33 <=1 
C720: x22+x36-y22_36 <=1 
C721: x22+x37 <=1 
C722: x22+x41-y22_41 <=1 
C723: x22+x43-y22_43 <=1 
C724: x22+x44-y22_44 <=1 
C725: x22+x46-y22_46 <=1 
C726: x22+x49 <=1 
C727: x22+x50-y22_50 <=1 
C728: x22+x52 <=1 
C729: x22+x53-y22_53 <=1 
C730: x22+x56-y22_56 <=1 
C731: x22+x57 <=1 
C732: x22+x58 <=1 
C733: x22+x62-y22_62 <=1 
C734: x23+x25 <=1 
C735: x23+x26 <=1 
C736: x23+x28-y23_28 <=1 
C737: x23+x29 <=1 
C738: x23+x30 <=1 
C739: x23+x31 <=1 
C740: x23+x32-y23_32 <=1 
C741: x23+x33-y23_33 <=1 
C742: x23+x34-y23_34 <=1 
C743: x23+x37 <=1 
C744: x23+x39-y23_39 <=1 
C745: x23+x41-y23_41 <=1 
C746: x23+x42-y23_42 <=1 
C747: x23+x44 <=1 
C748: x23+x46-y23_46 <=1 
C749: x23+x49-y23_49 <=1 
C750: x23+x50 <=1 
C751: x23+x52-y23_52 <=1 
C752: x23+x53-y23_53 <=1 
C753: x23+x54 <=1 
C754: x23+x55 <=1 
C755: x23+x57-y23_57 <=1 
C756: x23+x59 <=1 
C757: x23+x60 <=1 
C758: x23+x61 <=1 
C759: x23+x62-y23_62 <=1 
C760: x23+x63 <=1 
C761: x23+x64-y23_64 <=1 
C762: x24+x27 <=1 
C763: x24+x28-y24_28 <=1 
C764: x24+x29 <=1 
C765: x24+x30-y24_30 <=1 
C766: x24+x34-y24_34 <=1 
C767: x24+x35 <=1 
C768: x24+x40 <=1 
C769: x24+x49-y24_49 <=1 
C770: x24+x50-y24_50 <=1 
C771: x24+x52 <=1 
C772: x24+x54-y24_54 <=1 
C773: x24+x55-y24_55 <=1 
C774: x24+x57-y24_57 <=1 
C775: x24+x58-y24_58 <=1 
C776: x24+x59 <=1 
C777: x24+x62-y24_62 <=1 
C778: x24+x63 <=1 
C779: x25+x27 <=1 
C780: x25+x29-y25_29 <=1 
C781: x25+x30-y25_30 <=1 
C782: x25+x31-y25_31 <=1 
C783: x25+x33-y25_33 <=1 
C784: x25+x34 <=1 
C785: x25+x35-y25_35 <=1 
C786: x25+x37-y25_37 <=1 
C787: x25+x38-y25_38 <=1 
C788: x25+x39-y25_39 <=1 
C789: x25+x43 <=1 
C790: x25+x45 <=1 
C791: x25+x46-y25_46 <=1 
C792: x25+x47 <=1 
C793: x25+x49 <=1 
C794: x25+x50 <=1 
C795: x25+x52 <=1 
C796: x25+x53-y25_53 <=1 
C797: x25+x57 <=1 
C798: x25+x59-y25_59 <=1 
C799: x25+x60-y25_60 <=1 
C800: x25+x64 <=1 
C801: x26+x29 <=1 
C802: x26+x30-y26_30 <=1 
C803: x26+x31-y26_31 <=1 
C804: x26+x34-y26_34 <=1 
C805: x26+x35 <=1 
C806: x26+x36-y26_36 <=1 
C807: x26+x37-y26_37 <=1 
C808: x26+x39 <=1 
C809: x26+x40-y26_40 <=1 
C810: x26+x44-y26_44 <=1 
C811: x26+x45 <=1 
C812: x26+x46 <=1 
C813: x26+x47-y26_47 <=1 
C814: x26+x49-y26_49 <=1 
C815: x26+x50 <=1 
C816: x26+x53-y26_53 <=1 
C817: x26+x55 <=1 
C818: x26+x56 <=1 
C819: x26+x57-y26_57 <=1 
C820: x26+x58-y26_58 <=1 
C821: x26+x59 <=1 
C822: x26+x60-y26_60 <=1 
C823: x26+x62-y26_62 <=1 
C824: x26+x63 <=1 
C825: x27+x29-y27_29 <=1 
C826: x27+x32 <=1 
C827: x27+x33 <=1 
C828: x27+x34-y27_34 <=1 
C829: x27+x35-y27_35 <=1 
C830: x27+x37 <=1 
C831: x27+x38-y27_38 <=1 
C832: x27+x39 <=1 
C833: x27+x40 <=1 
C834: x27+x42-y27_42 <=1 
C835: x27+x44-y27_44 <=1 
C836: x27+x45 <=1 
C837: x27+x46 <=1 
C838: x27+x48 <=1 
C839: x27+x49 <=1 
C840: x27+x50-y27_50 <=1 
C841: x27+x51-y27_51 <=1 
C842: x27+x54-y27_54 <=1 
C843: x27+x56-y27_56 <=1 
C844: x27+x58 <=1 
C845: x27+x59-y27_59 <=1 
C846: x27+x60-y27_60 <=1 
C847: x27+x62-y27_62 <=1 
C848: x27+x64-y27_64 <=1 
C849: x28+x30 <=1 
C850: x28+x31-y28_31 <=1 
C851: x28+x33 <=1 
C852: x28+x34-y28_34 <=1 
C853: x28+x35-y28_35 <=1 
C854: x28+x36 <=1 
C855: x28+x39 <=1 
C856: x28+x40 <=1 
C857: x28+x42 <=1 
C858: x28+x43 <=1 
C859: x28+x44 <=1 
C860: x28+x46 <=1 
C861: x28+x48-y28_48 <=1 
C862: x28+x49-y28_49 <=1 
C863: x28+x50-y28_50 <=1 
C864: x28+x51-y28_51 <=1 
C865: x28+x52-y28_52 <=1 
C866: x28+x54 <=1 
C867: x28+x57 <=1 
C868: x28+x58-y28_58 <=1 
C869: x28+x59 <=1 
C870: x28+x60 <=1 
C871: x28+x62-y28_62 <=1 
C872: x28+x64-y28_64 <=1 
C873: x29+x32-y29_32 <=1 
C874: x29+x33 <=1 
C875: x29+x34 <=1 
C876: x29+x36-y29_36 <=1 
C877: x29+x37 <=1 
C878: x29+x39-y29_39 <=1 
C879: x29+x41-y29_41 <=1 
C880: x29+x42 <=1 
C881: x29+x45 <=1 
C882: x29+x46 <=1 
C883: x29+x47-y29_47 <=1 
C884: x29+x48-y29_48 <=1 
C885: x29+x49-y29_49 <=1 
C886: x29+x51 <=1 
C887: x29+x52 <=1 
C888: x29+x53 <=1 
C889: x29+x54-y29_54 <=1 
C890: x29+x55-y29_55 <=1 
C891: x29+x56-y29_56 <=1 
C892: x29+x57 <=1 
C893: x29+x64 <=1 
C894: x30+x31-y30_31 <=1 
C895: x30+x33 <=1 
C896: x30+x34-y30_34 <=1 
C897: x30+x36 <=1 
C898: x30+x40-y30_40 <=1 
C899: x30+x41 <=1 
C900: x30+x43 <=1 
C901: x30+x45-y30_45 <=1 
C902: x30+x47 <=1 
C903: x30+x48-y30_48 <=1 
C904: x30+x49 <=1 
C905: x30+x50-y30_50 <=1 
C906: x30+x51-y30_51 <=1 
C907: x30+x52-y30_52 <=1 
C908: x30+x53-y30_53 <=1 
C909: x30+x54 <=1 
C910: x30+x55-y30_55 <=1 
C911: x30+x56 <=1 
C912: x30+x57 <=1 
C913: x30+x58-y30_58 <=1 
C914: x30+x60 <=1 
C915: x31+x33-y31_33 <=1 
C916: x31+x37 <=1 
C917: x31+x39 <=1 
C918: x31+x41 <=1 
C919: x31+x43-y31_43 <=1 
C920: x31+x44-y31_44 <=1 
C921: x31+x45-y31_45 <=1 
C922: x31+x47-y31_47 <=1 
C923: x31+x48-y31_48 <=1 
C924: x31+x51-y31_51 <=1 
C925: x31+x52 <=1 
C926: x31+x54 <=1 
C927: x31+x55-y31_55 <=1 
C928: x31+x56-y31_56 <=1 
C929: x31+x57-y31_57 <=1 
C930: x31+x58 <=1 
C931: x31+x59 <=1 
C932: x31+x60-y31_60 <=1 
C933: x31+x61-y31_61 <=1 
C934: x31+x63-y31_63 <=1 
C935: x31+x64-y31_64 <=1 
C936: x32+x34-y32_34 <=1 
C937: x32+x35-y32_35 <=1 
C938: x32+x37-y32_37 <=1 
C939: x32+x39-y32_39 <=1 
C940: x32+x40 <=1 
C941: x32+x41-y32_41 <=1 
C942: x32+x43 <=1 
C943: x32+x44-y32_44 <=1 
C944: x32+x46-y32_46 <=1 
C945: x32+x47-y32_47 <=1 
C946: x32+x49-y32_49 <=1 
C947: x32+x53 <=1 
C948: x32+x54 <=1 
C949: x32+x55 <=1 
C950: x32+x56 <=1 
C951: x32+x57 <=1 
C952: x32+x58 <=1 
C953: x32+x59-y32_59 <=1 
C954: x32+x61 <=1 
C955: x32+x62 <=1 
C956: x32+x63-y32_63 <=1 
C957: x33+x35-y33_35 <=1 
C958: x33+x36-y33_36 <=1 
C959: x33+x38 <=1 
C960: x33+x39-y33_39 <=1 
C961: x33+x43-y33_43 <=1 
C962: x33+x45 <=1 
C963: x33+x46-y33_46 <=1 
C964: x33+x47 <=1 
C965: x33+x48 <=1 
C966: x33+x49 <=1 
C967: x33+x50-y33_50 <=1 
C968: x33+x51 <=1 
C969: x33+x53 <=1 
C970: x33+x54 <=1 
C971: x33+x55 <=1 
C972: x33+x57 <=1 
C973: x33+x61 <=1 
C974: x33+x62-y33_62 <=1 
C975: x33+x63-y33_63 <=1 
C976: x33+x64-y33_64 <=1 
C977: x34+x37-y34_37 <=1 
C978: x34+x38-y34_38 <=1 
C979: x34+x39 <=1 
C980: x34+x41 <=1 
C981: x34+x43-y34_43 <=1 
C982: x34+x44 <=1 
C983: x34+x45-y34_45 <=1 
C984: x34+x46-y34_46 <=1 
C985: x34+x48 <=1 
C986: x34+x50-y34_50 <=1 
C987: x34+x51 <=1 
C988: x34+x52-y34_52 <=1 
C989: x34+x53 <=1 
C990: x34+x54 <=1 
C991: x34+x55 <=1 
C992: x34+x57 <=1 
C993: x34+x59 <=1 
C994: x34+x60 <=1 
C995: x35+x36 <=1 
C996: x35+x38 <=1 
C997: x35+x40 <=1 
C998: x35+x42 <=1 
C999: x35+x44 <=1 
C1000: x35+x45 <=1 
C1001: x35+x46 <=1 
C1002: x35+x47 <=1 
C1003: x35+x49-y35_49 <=1 
C1004: x35+x51-y35_51 <=1 
C1005: x35+x52 <=1 
C1006: x35+x54-y35_54 <=1 
C1007: x35+x57 <=1 
C1008: x35+x58-y35_58 <=1 
C1009: x35+x59-y35_59 <=1 
C1010: x35+x61 <=1 
C1011: x35+x63-y35_63 <=1 
C1012: x36+x41 <=1 
C1013: x36+x42-y36_42 <=1 
C1014: x36+x43 <=1 
C1015: x36+x44 <=1 
C1016: x36+x45 <=1 
C1017: x36+x46 <=1 
C1018: x36+x47-y36_47 <=1 
C1019: x36+x48-y36_48 <=1 
C1020: x36+x50-y36_50 <=1 
C1021: x36+x52-y36_52 <=1 
C1022: x36+x53 <=1 
C1023: x36+x54-y36_54 <=1 
C1024: x36+x59 <=1 
C1025: x36+x60-y36_60 <=1 
C1026: x36+x61 <=1 
C1027: x36+x62-y36_62 <=1 
C1028: x36+x64-y36_64 <=1 
C1029: x37+x38-y37_38 <=1 
C1030: x37+x39 <=1 
C1031: x37+x41-y37_41 <=1 
C1032: x37+x42 <=1 
C1033: x37+x43-y37_43 <=1 
C1034: x37+x45-y37_45 <=1 
C1035: x37+x48 <=1 
C1036: x37+x49-y37_49 <=1 
C1037: x37+x53 <=1 
C1038: x37+x57-y37_57 <=1 
C1039: x37+x58 <=1 
C1040: x37+x59 <=1 
C1041: x37+x60-y37_60 <=1 
C1042: x37+x62 <=1 
C1043: x37+x63-y37_63 <=1 
C1044: x38+x39 <=1 
C1045: x38+x40 <=1 
C1046: x38+x43-y38_43 <=1 
C1047: x38+x44-y38_44 <=1 
C1048: x38+x45-y38_45 <=1 
C1049: x38+x46-y38_46 <=1 
C1050: x38+x47-y38_47 <=1 
C1051: x38+x48 <=1 
C1052: x38+x49 <=1 
C1053: x38+x51-y38_51 <=1 
C1054: x38+x52 <=1 
C1055: x38+x53 <=1 
C1056: x38+x56-y38_56 <=1 
C1057: x38+x57-y38_57 <=1 
C1058: x38+x58 <=1 
C1059: x38+x59-y38_59 <=1 
C1060: x38+x61 <=1 
C1061: x38+x62-y38_62 <=1 
C1062: x38+x63 <=1 
C1063: x38+x64 <=1 
C1064: x39+x41-y39_41 <=1 
C1065: x39+x43 <=1 
C1066: x39+x44 <=1 
C1067: x39+x46-y39_46 <=1 
C1068: x39+x47 <=1 
C1069: x39+x51-y39_51 <=1 
C1070: x39+x52 <=1 
C1071: x39+x53 <=1 
C1072: x39+x54 <=1 
C1073: x39+x55-y39_55 <=1 
C1074: x39+x56 <=1 
C1075: x39+x59 <=1 
C1076: x39+x60-y39_60 <=1 
C1077: x39+x62 <=1 
C1078: x39+x63-y39_63 <=1 
C1079: x40+x42-y40_42 <=1 
C1080: x40+x43 <=1 
C1081: x40+x44-y40_44 <=1 
C1082: x40+x45-y40_45 <=1 
C1083: x40+x46-y40_46 <=1 
C1084: x40+x47-y40_47 <=1 
C1085: x40+x51 <=1 
C1086: x40+x54 <=1 
C1087: x40+x55-y40_55 <=1 
C1088: x40+x56 <=1 
C1089: x40+x60 <=1 
C1090: x40+x62-y40_62 <=1 
C1091: x40+x64 <=1 
C1092: x41+x42 <=1 
C1093: x41+x46-y41_46 <=1 
C1094: x41+x47-y41_47 <=1 
C1095: x41+x48 <=1 
C1096: x41+x49-y41_49 <=1 
C1097: x41+x50 <=1 
C1098: x41+x51 <=1 
C1099: x41+x52 <=1 
C1100: x41+x54-y41_54 <=1 
C1101: x41+x57 <=1 
C1102: x41+x58-y41_58 <=1 
C1103: x41+x60-y41_60 <=1 
C1104: x41+x61 <=1 
C1105: x42+x43 <=1 
C1106: x42+x48-y42_48 <=1 
C1107: x42+x49 <=1 
C1108: x42+x50-y42_50 <=1 
C1109: x42+x51-y42_51 <=1 
C1110: x42+x52 <=1 
C1111: x42+x57 <=1 
C1112: x42+x61 <=1 
C1113: x42+x62-y42_62 <=1 
C1114: x43+x44-y43_44 <=1 
C1115: x43+x47 <=1 
C1116: x43+x51-y43_51 <=1 
C1117: x43+x53 <=1 
C1118: x43+x54-y43_54 <=1 
C1119: x43+x55-y43_55 <=1 
C1120: x43+x57 <=1 
C1121: x43+x61-y43_61 <=1 
C1122: x43+x62-y43_62 <=1 
C1123: x43+x64-y43_64 <=1 
C1124: x44+x45-y44_45 <=1 
C1125: x44+x46-y44_46 <=1 
C1126: x44+x47 <=1 
C1127: x44+x48-y44_48 <=1 
C1128: x44+x49 <=1 
C1129: x44+x51 <=1 
C1130: x44+x52 <=1 
C1131: x44+x53 <=1 
C1132: x44+x54-y44_54 <=1 
C1133: x44+x55-y44_55 <=1 
C1134: x44+x60-y44_60 <=1 
C1135: x44+x61 <=1 
C1136: x44+x62-y44_62 <=1 
C1137: x44+x64-y44_64 <=1 
C1138: x45+x46-y45_46 <=1 
C1139: x45+x47 <=1 
C1140: x45+x51-y45_51 <=1 
C1141: x45+x54-y45_54 <=1 
C1142: x45+x55 <=1 
C1143: x45+x56 <=1 
C1144: x45+x57 <=1 
C1145: x45+x58-y45_58 <=1 
C1146: x45+x59-y45_59 <=1 
C1147: x45+x60-y45_60 <=1 
C1148: x45+x62-y45_62 <=1 
C1149: x45+x64 <=1 
C1150: x46+x50-y46_50 <=1 
C1151: x46+x52-y46_52 <=1 
C1152: x46+x57 <=1 
C1153: x46+x58-y46_58 <=1 
C1154: x46+x59 <=1 
C1155: x46+x60-y46_60 <=1 
C1156: x46+x62-y46_62 <=1 
C1157: x46+x63 <=1 
C1158: x47+x48-y47_48 <=1 
C1159: x47+x49-y47_49 <=1 
C1160: x47+x50-y47_50 <=1 
C1161: x47+x51-y47_51 <=1 
C1162: x47+x52 <=1 
C1163: x47+x54-y47_54 <=1 
C1164: x47+x55 <=1 
C1165: x47+x56 <=1 
C1166: x47+x57-y47_57 <=1 
C1167: x47+x58 <=1 
C1168: x47+x59-y47_59 <=1 
C1169: x47+x60 <=1 
C1170: x47+x62 <=1 
C1171: x47+x63-y47_63 <=1 
C1172: x47+x64 <=1 
C1173: x48+x49-y48_49 <=1 
C1174: x48+x51 <=1 
C1175: x48+x53-y48_53 <=1 
C1176: x48+x54 <=1 
C1177: x48+x55-y48_55 <=1 
C1178: x48+x56-y48_56 <=1 
C1179: x48+x57-y48_57 <=1 
C1180: x48+x58 <=1 
C1181: x48+x59-y48_59 <=1 
C1182: x48+x60 <=1 
C1183: x48+x62-y48_62 <=1 
C1184: x48+x63-y48_63 <=1 
C1185: x49+x50 <=1 
C1186: x49+x53-y49_53 <=1 
C1187: x49+x55 <=1 
C1188: x49+x56 <=1 
C1189: x49+x58 <=1 
C1190: x49+x60 <=1 
C1191: x49+x62 <=1 
C1192: x49+x63 <=1 
C1193: x50+x51-y50_51 <=1 
C1194: x50+x53 <=1 
C1195: x50+x55 <=1 
C1196: x50+x57-y50_57 <=1 
C1197: x50+x59-y50_59 <=1 
C1198: x50+x63-y50_63 <=1 
C1199: x50+x64 <=1 
C1200: x51+x52-y51_52 <=1 
C1201: x51+x57 <=1 
C1202: x51+x59-y51_59 <=1 
C1203: x51+x60 <=1 
C1204: x51+x61 <=1 
C1205: x52+x53 <=1 
C1206: x52+x54 <=1 
C1207: x52+x58-y52_58 <=1 
C1208: x52+x60 <=1 
C1209: x52+x61-y52_61 <=1 
C1210: x52+x62-y52_62 <=1 
C1211: x52+x64-y52_64 <=1 
C1212: x53+x54 <=1 
C1213: x53+x55-y53_55 <=1 
C1214: x53+x56 <=1 
C1215: x53+x57 <=1 
C1216: x53+x58 <=1 
C1217: x53+x60 <=1 
C1218: x53+x62-y53_62 <=1 
C1219: x53+x64 <=1 
C1220: x54+x56-y54_56 <=1 
C1221: x54+x57 <=1 
C1222: x54+x58-y54_58 <=1 
C1223: x54+x59 <=1 
C1224: x54+x60-y54_60 <=1 
C1225: x54+x61-y54_61 <=1 
C1226: x54+x63-y54_63 <=1 
C1227: x54+x64 <=1 
C1228: x55+x56 <=1 
C1229: x55+x59 <=1 
C1230: x55+x60 <=1 
C1231: x55+x61-y55_61 <=1 
C1232: x55+x62 <=1 
C1233: x55+x64-y55_64 <=1 
C1234: x56+x57-y56_57 <=1 
C1235: x56+x58 <=1 
C1236: x56+x60-y56_60 <=1 
C1237: x56+x63 <=1 
C1238: x56+x64 <=1 
C1239: x57+x58 <=1 
C1240: x57+x60 <=1 
C1241: x57+x61-y57_61 <=1 
C1242: x57+x62 <=1 
C1243: x57+x63-y57_63 <=1 
C1244: x58+x59 <=1 
C1245: x58+x60-y58_60 <=1 
C1246: x58+x61-y58_61 <=1 
C1247: x58+x62-y58_62 <=1 
C1248: x58+x64 <=1 
C1249: x59+x60-y59_60 <=1 
C1250: x59+x63-y59_63 <=1 
C1251: x60+x61 <=1 
C1252: x60+x64-y60_64 <=1 
C1253: x61+x62 <=1 
C1254: x61+x63-y61_63 <=1 
C1255: x61+x64 <=1 
C1256: x63+x64-y63_64 <=1 

binary
x0
x1
x2
x3
x4
x5
x6
x7
x8
x9
x10
x11
x12
x13
x14
x15
x16
x17
x18
x19
x20
x21
x22
x23
x24
x25
x26
x27
x28
x29
x30
x31
x32
x33
x34
x35
x36
x37
x38
x39
x40
x41
x42
x43
x44
x45
x46
x47
x48
x49
x50
x51
x52
x53
x54
x55
x56
x57
x58
x59
x60
x61
x62
x63
x64
