problem_generation/data/GISP/train/er_n=65_m=1256_p=0.60_SET2_setparam=100.00_alpha=0.50_452.sol
objective value:                                 1270
x0                                                  1 	(obj:100)
x2                                                  1 	(obj:100)
x6                                                  1 	(obj:100)
x8                                                  1 	(obj:100)
x27                                                 1 	(obj:100)
x29                                                 1 	(obj:100)
x31                                                 1 	(obj:100)
x38                                                 1 	(obj:100)
x43                                                 1 	(obj:100)
x50                                                 1 	(obj:100)
x56                                                 1 	(obj:100)
x60                                                 1 	(obj:100)
x62                                                 1 	(obj:100)
y2_27                                               1 	(obj:-1)
y2_31                                               1 	(obj:-1)
y27_60                                              1 	(obj:-1)
y8_60                                               1 	(obj:-1)
y0_56                                               1 	(obj:-1)
y31_43                                              1 	(obj:-1)
y27_50                                              1 	(obj:-1)
y31_56                                              1 	(obj:-1)
y8_50                                               1 	(obj:-1)
y8_27                                               1 	(obj:-1)
y0_8                                                1 	(obj:-1)
y2_62                                               1 	(obj:-1)
y6_50                                               1 	(obj:-1)
y43_62                                              1 	(obj:-1)
y29_56                                              1 	(obj:-1)
y2_29                                               1 	(obj:-1)
y31_60                                              1 	(obj:-1)
y6_8                                                1 	(obj:-1)
y27_62                                              1 	(obj:-1)
y38_62                                              1 	(obj:-1)
y56_60                                              1 	(obj:-1)
y27_29                                              1 	(obj:-1)
y27_38                                              1 	(obj:-1)
y27_56                                              1 	(obj:-1)
y38_43                                              1 	(obj:-1)
y8_29                                               1 	(obj:-1)
y8_56                                               1 	(obj:-1)
y38_56                                              1 	(obj:-1)
y0_38                                               1 	(obj:-1)
y6_62                                               1 	(obj:-1)
